1111.0
[[13.  1.  2.  0. 12.  6.  3.  9. 19. 10.  7. 16. 15. 14.  5. 18.  4. 17.
  11.  8.]
 [13.  1.  2.  0. 12.  6.  3.  9. 19. 10.  7. 16. 15. 14.  5. 18.  4. 17.
  11.  8.]
 [13.  1.  2.  0. 12.  6.  3.  9. 19. 10.  7. 16. 15. 14.  5. 18.  4. 17.
  11.  8.]
 [13.  1.  2.  0. 12.  6.  3.  9. 19. 10.  7. 16. 15. 14.  5. 18.  4. 17.
  11.  8.]
 [13.  1.  2.  0. 12.  6.  3.  9. 19. 10.  7. 16. 15. 14.  5. 18.  4. 17.
  11.  8.]]
